\ Model initialisation
\ LP format - for model browsing. Use MPS format to capture full model detail.
Maximize
  t_l[0]
Subject To
 R0: - vars[0] + vars[1] <= 10000
 R1: vars[0] - vars[1] <= -0.001
 R2: - vars[0] + vars[2] <= 10000
 R3: vars[0] - vars[2] <= -0.001
 R4: - vars[3] + vars[4] <= 1
 R5: vars[3] - vars[4] <= -1
 R6: - vars[0] + vars[4] <= 10000
 R7: vars[0] - vars[4] <= -0.001
 R8: - vars[5] + vars[6] <= 1
 R9: vars[5] - vars[6] <= -1
 R10: - vars[0] + vars[6] <= 10000
 R11: vars[0] - vars[6] <= -0.001
 R12: - vars[4] + vars[7] <= 10000
 R13: vars[4] - vars[7] <= -0.001
 R14: - vars[6] + vars[8] <= 10000
 R15: vars[6] - vars[8] <= -0.001
 R16: - vars[9] + vars[10] <= 1
 R17: vars[9] - vars[10] <= -1
 R18: - vars[0] + vars[10] <= 10000
 R19: vars[0] - vars[10] <= -0.001
 R20: - vars[10] + vars[11] <= 10000
 R21: vars[10] - vars[11] <= -0.001
 R22: - vars[1] + vars[11] <= 10000
 R23: vars[1] - vars[11] <= -0.001
 R24: - vars[7] + vars[12] <= 10000
 R25: vars[7] - vars[12] <= -0.001
 R26: - vars[4] + vars[12] <= 10000
 R27: vars[4] - vars[12] <= -0.001
 R28: - vars[13] + vars[14] <= 1
 R29: vars[13] - vars[14] <= -1
 R30: - vars[0] + vars[14] <= 10000
 R31: vars[0] - vars[14] <= -0.001
 R32: - vars[14] + vars[15] <= 10000
 R33: vars[14] - vars[15] <= -0.001
 R34: - vars[11] + vars[15] <= 10000
 R35: vars[11] - vars[15] <= -0.001
 R36: - vars[10] + vars[15] <= 10000
 R37: vars[10] - vars[15] <= -0.001
 R38: - vars[1] + vars[15] <= 10000
 R39: vars[1] - vars[15] <= -0.001
 R40: - vars[16] + vars[17] <= 1
 R41: vars[16] - vars[17] <= -1
 R42: - vars[0] + vars[17] <= 10000
 R43: vars[0] - vars[17] <= -0.001
 R44: - vars[17] + vars[18] <= 10000
 R45: vars[17] - vars[18] <= -0.001
 R46: - vars[12] + vars[19] <= 10000
 R47: vars[12] - vars[19] <= -0.001
 R48: - vars[7] + vars[19] <= 10000
 R49: vars[7] - vars[19] <= -0.001
 R50: - vars[4] + vars[19] <= 10000
 R51: vars[4] - vars[19] <= -0.001
 R52: - vars[10] + vars[20] <= 10000
 R53: vars[10] - vars[20] <= -0.001
 R54: - vars[20] + vars[21] <= 1
 R55: vars[20] - vars[21] <= -1
 R56: - vars[0] + vars[21] <= 10000
 R57: vars[0] - vars[21] <= -0.001
 R58: - vars[22] + vars[23] <= 1
 R59: vars[22] - vars[23] <= -1
 R60: - vars[0] + vars[23] <= 10000
 R61: vars[0] - vars[23] <= -0.001
 R62: - vars[23] + vars[24] <= 10000
 R63: vars[23] - vars[24] <= -0.001
 R64: - vars[21] + vars[24] <= 10000
 R65: vars[21] - vars[24] <= -0.001
 R66: - vars[2] + vars[25] <= 10000
 R67: vars[2] - vars[25] <= -0.001
 R68: - vars[17] + vars[26] <= 10000
 R69: vars[17] - vars[26] <= -0.001
 R70: - vars[26] + vars[27] <= 1
 R71: vars[26] - vars[27] <= -1
 R72: - vars[0] + vars[27] <= 10000
 R73: vars[0] - vars[27] <= -0.001
 R74: - vars[27] + vars[28] <= 10000
 R75: vars[27] - vars[28] <= -0.001
 R76: - vars[8] + vars[28] <= 10000
 R77: vars[8] - vars[28] <= -0.001
 R78: - vars[6] + vars[28] <= 10000
 R79: vars[6] - vars[28] <= -0.001
 R80: - vars[4] + vars[30] <= 10000
 R81: vars[4] - vars[30] <= -0.001
 R82: - vars[30] + vars[31] <= 1
 R83: vars[30] - vars[31] <= -1
 R84: - vars[0] + vars[31] <= 10000
 R85: vars[0] - vars[31] <= -0.001
 R86: - vars[27] + vars[32] <= 10000
 R87: vars[27] - vars[32] <= -0.001
 R88: - vars[32] + vars[33] <= 1
 R89: vars[32] - vars[33] <= -1
 R90: - vars[0] + vars[33] <= 10000
 R91: vars[0] - vars[33] <= -0.001
 R92: - vars[33] + vars[34] <= 10000
 R93: vars[33] - vars[34] <= -0.001
 R94: - vars[31] + vars[34] <= 10000
 R95: vars[31] - vars[34] <= -0.001
 R96: - vars[33] + vars[35] <= 10000
 R97: vars[33] - vars[35] <= -0.001
 R98: - vars[23] + vars[37] <= 10000
 R99: vars[23] - vars[37] <= -0.001
 R100: - vars[35] + vars[36] <= 1
 R101: vars[35] - vars[36] <= -1
 R102: - vars[0] + vars[36] <= 10000
 R103: vars[0] - vars[36] <= -0.001
 R104: - vars[37] + vars[38] <= 1
 R105: vars[37] - vars[38] <= -1
 R106: - vars[0] + vars[38] <= 10000
 R107: vars[0] - vars[38] <= -0.001
 R108: - vars[38] + vars[39] <= 10000
 R109: vars[38] - vars[39] <= -0.001
 R110: - vars[36] + vars[39] <= 10000
 R111: vars[36] - vars[39] <= -0.001
 R112: - vars[19] + vars[39] <= 10000
 R113: vars[19] - vars[39] <= -0.001
 R114: - vars[12] + vars[39] <= 10000
 R115: vars[12] - vars[39] <= -0.001
 R116: - vars[7] + vars[39] <= 10000
 R117: vars[7] - vars[39] <= -0.001
 R118: - vars[4] + vars[39] <= 10000
 R119: vars[4] - vars[39] <= -0.001
 R120: - vars[6] + vars[40] <= 10000
 R121: vars[6] - vars[40] <= -0.001
 R122: - vars[40] + vars[41] <= 1
 R123: vars[40] - vars[41] <= -1
 R124: - vars[0] + vars[41] <= 10000
 R125: vars[0] - vars[41] <= -0.001
 R126: - vars[41] + vars[42] <= 10000
 R127: vars[41] - vars[42] <= -0.001
 R128: - vars[14] + vars[43] <= 10000
 R129: vars[14] - vars[43] <= -0.001
 R130: - vars[43] + vars[44] <= 1
 R131: vars[43] - vars[44] <= -1
 R132: - vars[0] + vars[44] <= 10000
 R133: vars[0] - vars[44] <= -0.001
 R134: - vars[44] + vars[45] <= 10000
 R135: vars[44] - vars[45] <= -0.001
 R136: - vars[46] + vars[47] <= 1
 R137: vars[46] - vars[47] <= -1
 R138: - vars[0] + vars[47] <= 10000
 R139: vars[0] - vars[47] <= -0.001
 R140: - vars[47] + vars[48] <= 10000
 R141: vars[47] - vars[48] <= -0.001
 R142: - vars[49] + vars[50] <= 1
 R143: vars[49] - vars[50] <= -1
 R144: - vars[0] + vars[50] <= 10000
 R145: vars[0] - vars[50] <= -0.001
 R146: - vars[50] + vars[51] <= 10000
 R147: vars[50] - vars[51] <= -0.001
 R148: - vars[25] + vars[52] <= 10000
 R149: vars[25] - vars[52] <= -0.001
 R150: - vars[2] + vars[52] <= 10000
 R151: vars[2] - vars[52] <= -0.001
 R152: - vars[50] + vars[53] <= 10000
 R153: vars[50] - vars[53] <= -0.001
 R154: - vars[53] + vars[54] <= 1
 R155: vars[53] - vars[54] <= -1
 R156: - vars[0] + vars[54] <= 10000
 R157: vars[0] - vars[54] <= -0.001
 R158: - vars[54] + vars[55] <= 10000
 R159: vars[54] - vars[55] <= -0.001
 R160: - vars[45] + vars[55] <= 10000
 R161: vars[45] - vars[55] <= -0.001
 R162: - vars[44] + vars[55] <= 10000
 R163: vars[44] - vars[55] <= -0.001
 R164: - vars[31] + vars[56] <= 10000
 R165: vars[31] - vars[56] <= -0.001
 R166: - vars[56] + vars[57] <= 1
 R167: vars[56] - vars[57] <= -1
 R168: - vars[0] + vars[57] <= 10000
 R169: vars[0] - vars[57] <= -0.001
 R170: - vars[57] + vars[58] <= 10000
 R171: vars[57] - vars[58] <= -0.001
 R172: - vars[28] + vars[58] <= 10000
 R173: vars[28] - vars[58] <= -0.001
 R174: - vars[27] + vars[58] <= 10000
 R175: vars[27] - vars[58] <= -0.001
 R176: - vars[8] + vars[58] <= 10000
 R177: vars[8] - vars[58] <= -0.001
 R178: - vars[6] + vars[58] <= 10000
 R179: vars[6] - vars[58] <= -0.001
 R180: - vars[57] + vars[59] <= 10000
 R181: vars[57] - vars[59] <= -0.001
 R182: - vars[59] + vars[60] <= 1
 R183: vars[59] - vars[60] <= -1
 R184: - vars[0] + vars[60] <= 10000
 R185: vars[0] - vars[60] <= -0.001
 R186: - vars[47] + vars[61] <= 10000
 R187: vars[47] - vars[61] <= -0.001
 R188: - vars[61] + vars[62] <= 1
 R189: vars[61] - vars[62] <= -1
 R190: - vars[0] + vars[62] <= 10000
 R191: vars[0] - vars[62] <= -0.001
 R192: - vars[0] + vars[63] - vars[64] <= 261.006
 R193: vars[0] - vars[63] <= 0
 R194: - vars[62] + vars[63] <= 10000
 R195: vars[62] - vars[63] <= -0.001
 R196: - vars[60] + vars[63] <= 10000
 R197: vars[60] - vars[63] <= -0.001
 R198: - t_l[0] + zl[0] = 0
 R199: - t_l[0] + zl[1] = 0
 R200: - t_l[0] + zl[2] = 0
 R201: - t_l[0] + zl[3] = 0
 R202: - t_l[0] + zl[4] = 0
 R203: - t_l[0] + zl[5] = 0
 R204: - t_l[0] + zl[6] = 0
 R205: - t_l[0] + zl[7] = 0
 R206: - t_l[0] + zl[8] = 0
 R207: - t_l[0] + zl[9] = 0
 R208: - t_l[0] + zl[10] = 0
 R209: - t_l[0] + zl[11] = 0
 R210: - t_l[0] + zl[12] = 0
 R211: - t_l[0] + zl[13] = 0
 R212: - t_l[0] + zl[14] = 0
 R213: - t_l[0] + zl[15] = 0
 R214: - t_l[0] + zl[16] = 0
 R215: - t_l[0] + zl[17] = 0
 R216: - t_l[0] + zl[18] = 0
 R217: - t_l[0] + zl[19] = 0
 R218: - t_l[0] + zl[20] = 0
 R219: - t_l[0] + zl[21] = 0
 R220: - t_l[0] + zl[22] = 0
 R221: - t_l[0] + zl[23] = 0
 R222: - t_l[0] + zl[24] = 0
 R223: - t_l[0] + zl[25] = 0
 R224: - t_l[0] + zl[26] = 0
 R225: - t_l[0] + zl[27] = 0
 R226: - t_l[0] + zl[28] = 0
 R227: - t_l[0] + zl[29] = 0
 R228: - t_l[0] + zl[30] = 0
 R229: - t_l[0] + zl[31] = 0
 R230: - t_l[0] + zl[32] = 0
 R231: - t_l[0] + zl[33] = 0
 R232: - t_l[0] + zl[34] = 0
 R233: - t_l[0] + zl[35] = 0
 R234: - t_l[0] + zl[36] = 0
 R235: - t_l[0] + zl[37] = 0
 R236: - t_l[0] + zl[38] = 0
 R237: - t_l[0] + zl[39] = 0
 R238: - t_l[0] + zl[40] = 0
 R239: - t_l[0] + zl[41] = 0
 R240: - t_l[0] + zl[42] = 0
 R241: - t_l[0] + zl[43] = 0
 R242: - t_l[0] + zl[44] = 0
 R243: - t_l[0] + zl[45] = 0
 R244: - t_l[0] + zl[46] = 0
 R245: - t_l[0] + zl[47] = 0
 R246: - t_l[0] + zl[48] = 0
 R247: - t_l[0] + zl[49] = 0
 R248: - t_l[0] + zl[50] = 0
 R249: - t_l[0] + zl[51] = 0
 R250: - t_l[0] + zl[52] = 0
 R251: - t_l[0] + zl[53] = 0
 R252: - t_l[0] + zl[54] = 0
 R253: - t_l[0] + zl[55] = 0
 R254: - t_l[0] + zl[56] = 0
 R255: - t_l[0] + zl[57] = 0
 R256: - t_l[0] + zl[58] = 0
 R257: - t_l[0] + zl[59] = 0
 R258: - t_l[0] + zl[60] = 0
 R259: - t_l[0] + zl[61] = 0
 R260: - t_l[0] + zl[62] = 0
 R261: - t_l[0] + zl[63] = 0
 R262: - t_l[0] + zl[64] = 0
 R263: - t_l[0] + zl[65] = 0
 R264: - t_l[0] + zl[66] = 0
 R265: - t_l[0] + zl[67] = 0
 R266: - t_l[0] + zl[68] = 0
 R267: - t_l[0] + zl[69] = 0
 R268: - t_l[0] + zl[70] = 0
 R269: - t_l[0] + zl[71] = 0
 R270: - t_l[0] + zl[72] = 0
 R271: - t_l[0] + zl[73] = 0
 R272: - t_l[0] + zl[74] = 0
 R273: - t_l[0] + zl[75] = 0
 R274: - t_l[0] + zl[76] = 0
 R275: - t_l[0] + zl[77] = 0
 R276: - t_l[0] + zl[78] = 0
 R277: - t_l[0] + zl[79] = 0
 R278: - t_l[0] + zl[80] = 0
 R279: - t_l[0] + zl[81] = 0
 R280: - t_l[0] + zl[82] = 0
 R281: - t_l[0] + zl[83] = 0
 R282: - t_l[0] + zl[84] = 0
 R283: - t_l[0] + zl[85] = 0
 R284: - t_l[0] + zl[86] = 0
 R285: - t_l[0] + zl[87] = 0
 R286: - t_l[0] + zl[88] = 0
 R287: - t_l[0] + zl[89] = 0
 R288: - t_l[0] + zl[90] = 0
 R289: - t_l[0] + zl[91] = 0
 R290: - t_l[0] + zl[92] = 0
 R291: - t_l[0] + zl[93] = 0
 R292: - t_l[0] + zl[94] = 0
 R293: - t_l[0] + zl[95] = 0
 R294: - t_l[0] + zl[96] = 0
 R295: - t_l[0] + zl[97] = 0
 R296: - t_l[0] + zl[98] = 0
 R297: - t_l[0] + zl[99] = 0
 R298: - t_l[0] + zl[100] = 0
 R299: - t_l[0] + zl[101] = 0
 R300: - t_l[0] + zl[102] = 0
 R301: - t_l[0] + zl[103] = 0
 R302: - t_l[0] + zl[104] = 0
 R303: - t_l[0] + zl[105] = 0
 R304: - t_l[0] + zl[106] = 0
 R305: - t_l[0] + zl[107] = 0
 R306: - t_l[0] + zl[108] = 0
 R307: - t_l[0] + zl[109] = 0
 R308: - t_l[0] + zl[110] = 0
 R309: - t_l[0] + zl[111] = 0
 R310: - t_l[0] + zl[112] = 0
 R311: - t_l[0] + zl[113] = 0
 R312: - t_l[0] + zl[114] = 0
 R313: - t_l[0] + zl[115] = 0
 R314: - t_l[0] + zl[116] = 0
 R315: - t_l[0] + zl[117] = 0
 R316: - t_l[0] + zl[118] = 0
 R317: - t_l[0] + zl[119] = 0
 R318: - t_l[0] + zl[120] = 0
 R319: - t_l[0] + zl[121] = 0
 R320: - t_l[0] + zl[122] = 0
 R321: - t_l[0] + zl[123] = 0
 R322: - t_l[0] + zl[124] = 0
 R323: - t_l[0] + zl[125] = 0
 R324: - t_l[0] + zl[126] = 0
 R325: - t_l[0] + zl[127] = 0
 R326: - t_l[0] + zl[128] = 0
 R327: - t_l[0] + zl[129] = 0
 R328: - t_l[0] + zl[130] = 0
 R329: - t_l[0] + zl[131] = 0
 R330: - t_l[0] + zl[132] = 0
 R331: - t_l[0] + zl[133] = 0
 R332: - t_l[0] + zl[134] = 0
 R333: - t_l[0] + zl[135] = 0
 R334: - t_l[0] + zl[136] = 0
 R335: - t_l[0] + zl[137] = 0
 R336: - t_l[0] + zl[138] = 0
 R337: - t_l[0] + zl[139] = 0
 R338: - t_l[0] + zl[140] = 0
 R339: - t_l[0] + zl[141] = 0
 R340: - t_l[0] + zl[142] = 0
 R341: - t_l[0] + zl[143] = 0
 R342: - t_l[0] + zl[144] = 0
 R343: - t_l[0] + zl[145] = 0
 R344: - t_l[0] + zl[146] = 0
 R345: - t_l[0] + zl[147] = 0
 R346: - t_l[0] + zl[148] = 0
 R347: - t_l[0] + zl[149] = 0
 R348: - t_l[0] + zl[150] = 0
 R349: - t_l[0] + zl[151] = 0
 R350: - t_l[0] + zl[152] = 0
 R351: - t_l[0] + zl[153] = 0
 R352: - t_l[0] + zl[154] = 0
 R353: - t_l[0] + zl[155] = 0
 R354: - t_l[0] + zl[156] = 0
 R355: - t_l[0] + zl[157] = 0
 R356: - t_l[0] + zl[158] = 0
 R357: - t_l[0] + zl[159] = 0
 R358: - t_l[0] + zl[160] = 0
 R359: - t_l[0] + zl[161] = 0
 R360: - t_l[0] + zl[162] = 0
 R361: - t_l[0] + zl[163] = 0
 R362: - 0.4166666666666666 vars[0] + 0.4166666666666666 vars[1] + zl[0]
   <= 4161.666666666666
 R363: 0.4166666666666666 vars[0] - 0.4166666666666666 vars[1] + zl[1]
   <= 4.999583333333333
 R364: - 0.4166666666666666 vars[0] + 0.4166666666666666 vars[2] + zl[2]
   <= 4161.666666666666
 R365: 0.4166666666666666 vars[0] - 0.4166666666666666 vars[2] + zl[3]
   <= 4.999583333333333
 R366: - 0.4166666666666666 vars[1] + 0.4166666666666666 vars[3] + zl[4]
   <= 4171.666666666666
 R367: 0.4166666666666666 vars[1] - 0.4166666666666666 vars[3] + zl[5]
   <= -5.000416666666666
 R368: - 0.4166666666666666 vars[2] + 0.4166666666666666 vars[5] + zl[6]
   <= 4171.666666666666
 R369: 0.4166666666666666 vars[2] - 0.4166666666666666 vars[5] + zl[7]
   <= -5.000416666666666
 R370: - 0.4166666666666666 vars[1] + 0.4166666666666666 vars[7] + zl[8]
   <= 4171.666666666666
 R371: 0.4166666666666666 vars[1] - 0.4166666666666666 vars[7] + zl[9]
   <= -5.000416666666666
 R372: - 0.4166666666666666 vars[2] + 0.4166666666666666 vars[8] + zl[10]
   <= 4171.666666666666
 R373: 0.4166666666666666 vars[2] - 0.4166666666666666 vars[8] + zl[11]
   <= -5.000416666666666
 R374: - 0.4166666666666666 vars[1] + 0.4166666666666666 vars[7] + zl[12]
   <= 4161.666666666666
 R375: 0.4166666666666666 vars[1] - 0.4166666666666666 vars[7] + zl[13]
   <= 4.999583333333333
 R376: - 0.4166666666666666 vars[7] + 0.4166666666666666 vars[9] + zl[14]
   <= 4171.666666666666
 R377: 0.4166666666666666 vars[7] - 0.4166666666666666 vars[9] + zl[15]
   <= -5.000416666666666
 R378: - 0.4166666666666666 vars[7] + 0.4166666666666666 vars[11] + zl[16]
   <= 4171.666666666666
 R379: 0.4166666666666666 vars[7] - 0.4166666666666666 vars[11] + zl[17]
   <= -5.000416666666666
 R380: - 0.4166666666666666 vars[7] + 0.4166666666666666 vars[11] + zl[18]
   <= 4161.666666666666
 R381: 0.4166666666666666 vars[7] - 0.4166666666666666 vars[11] + zl[19]
   <= 4.999583333333333
 R382: - 0.4166666666666666 vars[11] + 0.4166666666666666 vars[12] + zl[20]
   <= 4171.666666666666
 R383: 0.4166666666666666 vars[11] - 0.4166666666666666 vars[12] + zl[21]
   <= -5.000416666666666
 R384: - 0.4166666666666666 vars[1] + 0.4166666666666666 vars[12] + zl[22]
   <= 4171.666666666666
 R385: 0.4166666666666666 vars[1] - 0.4166666666666666 vars[12] + zl[23]
   <= -5.000416666666666
 R386: - 0.4166666666666666 vars[11] + 0.4166666666666666 vars[12] + zl[24]
   <= 4161.666666666666
 R387: 0.4166666666666666 vars[11] - 0.4166666666666666 vars[12] + zl[25]
   <= 4.999583333333333
 R388: - 0.4166666666666666 vars[1] + 0.4166666666666666 vars[12] + zl[26]
   <= 4161.666666666666
 R389: 0.4166666666666666 vars[1] - 0.4166666666666666 vars[12] + zl[27]
   <= 4.999583333333333
 R390: - 0.4166666666666666 vars[12] + 0.4166666666666666 vars[13] + zl[28]
   <= 4171.666666666666
 R391: 0.4166666666666666 vars[12] - 0.4166666666666666 vars[13] + zl[29]
   <= -5.000416666666666
 R392: - 0.4166666666666666 vars[12] + 0.4166666666666666 vars[15] + zl[30]
   <= 4171.666666666666
 R393: 0.4166666666666666 vars[12] - 0.4166666666666666 vars[15] + zl[31]
   <= -5.000416666666666
 R394: - 0.4166666666666666 vars[7] + 0.4166666666666666 vars[15] + zl[32]
   <= 4171.666666666666
 R395: 0.4166666666666666 vars[7] - 0.4166666666666666 vars[15] + zl[33]
   <= -5.000416666666666
 R396: - 0.1136363636363636 vars[0] + 0.1136363636363636 vars[8] + zl[34]
   <= 1131.363636363636
 R397: 0.1136363636363636 vars[0] - 0.1136363636363636 vars[8] + zl[35]
   <= 4.999886363636364
 R398: - 0.1136363636363636 vars[8] + 0.1136363636363636 vars[16] + zl[36]
   <= 1141.363636363636
 R399: 0.1136363636363636 vars[8] - 0.1136363636363636 vars[16] + zl[37]
   <= -5.000113636363636
 R400: - 0.1136363636363636 vars[8] + 0.1136363636363636 vars[18] + zl[38]
   <= 1141.363636363636
 R401: 0.1136363636363636 vars[8] - 0.1136363636363636 vars[18] + zl[39]
   <= -5.000113636363636
 R402: - 0.4166666666666666 vars[12] + 0.4166666666666666 vars[15] + zl[40]
   <= 4161.666666666666
 R403: 0.4166666666666666 vars[12] - 0.4166666666666666 vars[15] + zl[41]
   <= 4.999583333333333
 R404: - 0.4166666666666666 vars[7] + 0.4166666666666666 vars[15] + zl[42]
   <= 4161.666666666666
 R405: 0.4166666666666666 vars[7] - 0.4166666666666666 vars[15] + zl[43]
   <= 4.999583333333333
 R406: - 0.4166666666666666 vars[15] + 0.4166666666666666 vars[19] + zl[44]
   <= 4171.666666666666
 R407: 0.4166666666666666 vars[15] - 0.4166666666666666 vars[19] + zl[45]
   <= -5.000416666666666
 R408: - 0.4166666666666666 vars[11] + 0.4166666666666666 vars[19] + zl[46]
   <= 4171.666666666666
 R409: 0.4166666666666666 vars[11] - 0.4166666666666666 vars[19] + zl[47]
   <= -5.000416666666666
 R410: - 0.4166666666666666 vars[1] + 0.4166666666666666 vars[19] + zl[48]
   <= 4171.666666666666
 R411: 0.4166666666666666 vars[1] - 0.4166666666666666 vars[19] + zl[49]
   <= -5.000416666666666
 R412: - 0.25 vars[0] + 0.25 vars[19] + zl[50] <= 2495
 R413: 0.25 vars[0] - 0.25 vars[19] + zl[51] <= 4.99975
 R414: - 0.25 vars[19] + 0.25 vars[20] + zl[52] <= 2505
 R415: 0.25 vars[19] - 0.25 vars[20] + zl[53] <= -5.00025
 R416: - 0.25 vars[19] + 0.25 vars[22] + zl[54] <= 2505
 R417: 0.25 vars[19] - 0.25 vars[22] + zl[55] <= -5.00025
 R418: - 0.25 vars[19] + 0.25 vars[24] + zl[56] <= 2505
 R419: 0.25 vars[19] - 0.25 vars[24] + zl[57] <= -5.00025
 R420: - 0.1388888888888889 vars[2] + 0.1388888888888889 vars[18] + zl[58]
   <= 1383.888888888889
 R421: 0.1388888888888889 vars[2] - 0.1388888888888889 vars[18] + zl[59]
   <= 4.999861111111112
 R422: - 0.1388888888888889 vars[18] + 0.1388888888888889 vars[25] + zl[60]
   <= 1393.888888888889
 R423: 0.1388888888888889 vars[18] - 0.1388888888888889 vars[25] + zl[61]
   <= -5.000138888888888
 R424: - 0.4166666666666666 vars[8] + 0.4166666666666666 vars[25] + zl[62]
   <= 4161.666666666666
 R425: 0.4166666666666666 vars[8] - 0.4166666666666666 vars[25] + zl[63]
   <= 4.999583333333333
 R426: - 0.4166666666666666 vars[25] + 0.4166666666666666 vars[26] + zl[64]
   <= 4171.666666666666
 R427: 0.4166666666666666 vars[25] - 0.4166666666666666 vars[26] + zl[65]
   <= -5.000416666666666
 R428: - 0.4166666666666666 vars[25] + 0.4166666666666666 vars[28] + zl[66]
   <= 4171.666666666666
 R429: 0.4166666666666666 vars[25] - 0.4166666666666666 vars[28] + zl[67]
   <= -5.000416666666666
 R430: - 0.4166666666666666 vars[2] + 0.4166666666666666 vars[28] + zl[68]
   <= 4171.666666666666
 R431: 0.4166666666666666 vars[2] - 0.4166666666666666 vars[28] + zl[69]
   <= -5.000416666666666
 R432: - 0.1785714285714285 vars[0] + 0.1785714285714285 vars[24] + zl[70]
   <= 1780.714285714286
 R433: 0.1785714285714285 vars[0] - 0.1785714285714285 vars[24] + zl[71]
   <= 4.999821428571428
 R434: - 0.1785714285714285 vars[24] + 0.1785714285714285 vars[29] + zl[72]
   <= 1790.714285714286
 R435: 0.1785714285714285 vars[24] - 0.1785714285714285 vars[29] + zl[73]
   <= -5.000178571428571
 R436: - 0.4166666666666666 vars[0] + 0.4166666666666666 vars[29] + zl[74]
   <= 4161.666666666666
 R437: 0.4166666666666666 vars[0] - 0.4166666666666666 vars[29] + zl[75]
   <= 4.999583333333333
 R438: - 0.4166666666666666 vars[29] + 0.4166666666666666 vars[30] + zl[76]
   <= 4171.666666666666
 R439: 0.4166666666666666 vars[29] - 0.4166666666666666 vars[30] + zl[77]
   <= -5.000416666666666
 R440: - 0.4166666666666666 vars[29] + 0.4166666666666666 vars[32] + zl[78]
   <= 4171.666666666666
 R441: 0.4166666666666666 vars[29] - 0.4166666666666666 vars[32] + zl[79]
   <= -5.000416666666666
 R442: - 0.4166666666666666 vars[29] + 0.4166666666666666 vars[34] + zl[80]
   <= 4171.666666666666
 R443: 0.4166666666666666 vars[29] - 0.4166666666666666 vars[34] + zl[81]
   <= -5.000416666666666
 R444: - 0.25 vars[19] + 0.25 vars[34] + zl[82] <= 2495
 R445: 0.25 vars[19] - 0.25 vars[34] + zl[83] <= 4.99975
 R446: - 0.25 vars[12] + 0.25 vars[34] + zl[84] <= 2495
 R447: 0.25 vars[12] - 0.25 vars[34] + zl[85] <= 4.99975
 R448: - 0.25 vars[7] + 0.25 vars[34] + zl[86] <= 2495
 R449: 0.25 vars[7] - 0.25 vars[34] + zl[87] <= 4.99975
 R450: - 0.25 vars[34] + 0.25 vars[35] + zl[88] <= 2505
 R451: 0.25 vars[34] - 0.25 vars[35] + zl[89] <= -5.00025
 R452: - 0.25 vars[34] + 0.25 vars[37] + zl[90] <= 2505
 R453: 0.25 vars[34] - 0.25 vars[37] + zl[91] <= -5.00025
 R454: - 0.25 vars[34] + 0.25 vars[39] + zl[92] <= 2505
 R455: 0.25 vars[34] - 0.25 vars[39] + zl[93] <= -5.00025
 R456: - 0.4166666666666666 vars[15] + 0.4166666666666666 vars[39] + zl[94]
   <= 4171.666666666666
 R457: 0.4166666666666666 vars[15] - 0.4166666666666666 vars[39] + zl[95]
   <= -5.000416666666666
 R458: - 0.4166666666666666 vars[11] + 0.4166666666666666 vars[39] + zl[96]
   <= 4171.666666666666
 R459: 0.4166666666666666 vars[11] - 0.4166666666666666 vars[39] + zl[97]
   <= -5.000416666666666
 R460: - 0.4166666666666666 vars[1] + 0.4166666666666666 vars[39] + zl[98]
   <= 4171.666666666666
 R461: 0.4166666666666666 vars[1] - 0.4166666666666666 vars[39] + zl[99]
   <= -5.000416666666666
 R462: - 0.0833333333333333 vars[0] + 0.0833333333333333 vars[28] + zl[100]
   <= 828.3333333333333
 R463: 0.0833333333333333 vars[0] - 0.0833333333333333 vars[28] + zl[101]
   <= 4.999916666666667
 R464: - 0.0833333333333333 vars[28] + 0.0833333333333333 vars[40]
   + zl[102] <= 838.3333333333333
 R465: 0.0833333333333333 vars[28] - 0.0833333333333333 vars[40] + zl[103]
   <= -5.000083333333333
 R466: - 0.0833333333333333 vars[28] + 0.0833333333333333 vars[42]
   + zl[104] <= 838.3333333333333
 R467: 0.0833333333333333 vars[28] - 0.0833333333333333 vars[42] + zl[105]
   <= -5.000083333333333
 R468: - 0.1785714285714285 vars[0] + 0.1785714285714285 vars[39] + zl[106]
   <= 1780.714285714286
 R469: 0.1785714285714285 vars[0] - 0.1785714285714285 vars[39] + zl[107]
   <= 4.999821428571428
 R470: - 0.1785714285714285 vars[39] + 0.1785714285714285 vars[43]
   + zl[108] <= 1790.714285714286
 R471: 0.1785714285714285 vars[39] - 0.1785714285714285 vars[43] + zl[109]
   <= -5.000178571428571
 R472: - 0.1785714285714285 vars[39] + 0.1785714285714285 vars[45]
   + zl[110] <= 1790.714285714286
 R473: 0.1785714285714285 vars[39] - 0.1785714285714285 vars[45] + zl[111]
   <= -5.000178571428571
 R474: - 0.4166666666666666 vars[0] + 0.4166666666666666 vars[45] + zl[112]
   <= 4161.666666666666
 R475: 0.4166666666666666 vars[0] - 0.4166666666666666 vars[45] + zl[113]
   <= 4.999583333333333
 R476: - 0.4166666666666666 vars[45] + 0.4166666666666666 vars[46]
   + zl[114] <= 4171.666666666666
 R477: 0.4166666666666666 vars[45] - 0.4166666666666666 vars[46] + zl[115]
   <= -5.000416666666666
 R478: - 0.4166666666666666 vars[45] + 0.4166666666666666 vars[48]
   + zl[116] <= 4171.666666666666
 R479: 0.4166666666666666 vars[45] - 0.4166666666666666 vars[48] + zl[117]
   <= -5.000416666666666
 R480: - 0.4166666666666666 vars[0] + 0.4166666666666666 vars[48] + zl[118]
   <= 4161.666666666666
 R481: 0.4166666666666666 vars[0] - 0.4166666666666666 vars[48] + zl[119]
   <= 4.999583333333333
 R482: - 0.4166666666666666 vars[48] + 0.4166666666666666 vars[49]
   + zl[120] <= 4171.666666666666
 R483: 0.4166666666666666 vars[48] - 0.4166666666666666 vars[49] + zl[121]
   <= -5.000416666666666
 R484: - 0.4166666666666666 vars[48] + 0.4166666666666666 vars[51]
   + zl[122] <= 4171.666666666666
 R485: 0.4166666666666666 vars[48] - 0.4166666666666666 vars[51] + zl[123]
   <= -5.000416666666666
 R486: - 0.0961538461538461 vars[25] + 0.0961538461538461 vars[42]
   + zl[124] <= 956.5384615384614
 R487: 0.0961538461538461 vars[25] - 0.0961538461538461 vars[42] + zl[125]
   <= 4.999903846153846
 R488: - 0.0961538461538461 vars[2] + 0.0961538461538461 vars[42] + zl[126]
   <= 956.5384615384614
 R489: 0.0961538461538461 vars[2] - 0.0961538461538461 vars[42] + zl[127]
   <= 4.999903846153846
 R490: - 0.0961538461538461 vars[42] + 0.0961538461538461 vars[52]
   + zl[128] <= 966.5384615384614
 R491: 0.0961538461538461 vars[42] - 0.0961538461538461 vars[52] + zl[129]
   <= -5.000096153846153
 R492: - 0.1388888888888889 vars[18] + 0.1388888888888889 vars[52]
   + zl[130] <= 1393.888888888889
 R493: 0.1388888888888889 vars[18] - 0.1388888888888889 vars[52] + zl[131]
   <= -5.000138888888888
 R494: - 0.25 vars[45] + 0.25 vars[51] + zl[132] <= 2495
 R495: 0.25 vars[45] - 0.25 vars[51] + zl[133] <= 4.99975
 R496: - 0.25 vars[51] + 0.25 vars[53] + zl[134] <= 2505
 R497: 0.25 vars[51] - 0.25 vars[53] + zl[135] <= -5.00025
 R498: - 0.25 vars[51] + 0.25 vars[55] + zl[136] <= 2505
 R499: 0.25 vars[51] - 0.25 vars[55] + zl[137] <= -5.00025
 R500: - 0.1785714285714285 vars[39] + 0.1785714285714285 vars[55]
   + zl[138] <= 1790.714285714286
 R501: 0.1785714285714285 vars[39] - 0.1785714285714285 vars[55] + zl[139]
   <= -5.000178571428571
 R502: - 0.4166666666666666 vars[28] + 0.4166666666666666 vars[52]
   + zl[140] <= 4161.666666666666
 R503: 0.4166666666666666 vars[28] - 0.4166666666666666 vars[52] + zl[141]
   <= 4.999583333333333
 R504: - 0.4166666666666666 vars[8] + 0.4166666666666666 vars[52] + zl[142]
   <= 4161.666666666666
 R505: 0.4166666666666666 vars[8] - 0.4166666666666666 vars[52] + zl[143]
   <= 4.999583333333333
 R506: - 0.4166666666666666 vars[52] + 0.4166666666666666 vars[56]
   + zl[144] <= 4171.666666666666
 R507: 0.4166666666666666 vars[52] - 0.4166666666666666 vars[56] + zl[145]
   <= -5.000416666666666
 R508: - 0.4166666666666666 vars[52] + 0.4166666666666666 vars[58]
   + zl[146] <= 4171.666666666666
 R509: 0.4166666666666666 vars[52] - 0.4166666666666666 vars[58] + zl[147]
   <= -5.000416666666666
 R510: - 0.4166666666666666 vars[25] + 0.4166666666666666 vars[58]
   + zl[148] <= 4171.666666666666
 R511: 0.4166666666666666 vars[25] - 0.4166666666666666 vars[58] + zl[149]
   <= -5.000416666666666
 R512: - 0.4166666666666666 vars[2] + 0.4166666666666666 vars[58] + zl[150]
   <= 4171.666666666666
 R513: 0.4166666666666666 vars[2] - 0.4166666666666666 vars[58] + zl[151]
   <= -5.000416666666666
 R514: - 0.4166666666666666 vars[52] + 0.4166666666666666 vars[58]
   + zl[152] <= 4161.666666666666
 R515: 0.4166666666666666 vars[52] - 0.4166666666666666 vars[58] + zl[153]
   <= 4.999583333333333
 R516: - 0.4166666666666666 vars[25] + 0.4166666666666666 vars[58]
   + zl[154] <= 4161.666666666666
 R517: 0.4166666666666666 vars[25] - 0.4166666666666666 vars[58] + zl[155]
   <= 4.999583333333333
 R518: - 0.4166666666666666 vars[2] + 0.4166666666666666 vars[58] + zl[156]
   <= 4161.666666666666
 R519: 0.4166666666666666 vars[2] - 0.4166666666666666 vars[58] + zl[157]
   <= 4.999583333333333
 R520: - 0.4166666666666666 vars[58] + 0.4166666666666666 vars[59]
   + zl[158] <= 4171.666666666666
 R521: 0.4166666666666666 vars[58] - 0.4166666666666666 vars[59] + zl[159]
   <= -5.000416666666666
 R522: - 0.1388888888888889 vars[29] + 0.1388888888888889 vars[55]
   + zl[160] <= 1383.888888888889
 R523: 0.1388888888888889 vars[29] - 0.1388888888888889 vars[55] + zl[161]
   <= 4.999861111111112
 R524: - 0.1388888888888889 vars[55] + 0.1388888888888889 vars[61]
   + zl[162] <= 1393.888888888889
 R525: 0.1388888888888889 vars[55] - 0.1388888888888889 vars[61] + zl[163]
   <= -5.000138888888888
 R526: t_l[0] <= 6
 R527: vars[0] = 0
Bounds
 zl[0] >= -10000
 zl[1] >= -10000
 zl[2] >= -10000
 zl[3] >= -10000
 zl[4] >= -10000
 zl[5] >= -10000
 zl[6] >= -10000
 zl[7] >= -10000
 zl[8] >= -10000
 zl[9] >= -10000
 zl[10] >= -10000
 zl[11] >= -10000
 zl[12] >= -10000
 zl[13] >= -10000
 zl[14] >= -10000
 zl[15] >= -10000
 zl[16] >= -10000
 zl[17] >= -10000
 zl[18] >= -10000
 zl[19] >= -10000
 zl[20] >= -10000
 zl[21] >= -10000
 zl[22] >= -10000
 zl[23] >= -10000
 zl[24] >= -10000
 zl[25] >= -10000
 zl[26] >= -10000
 zl[27] >= -10000
 zl[28] >= -10000
 zl[29] >= -10000
 zl[30] >= -10000
 zl[31] >= -10000
 zl[32] >= -10000
 zl[33] >= -10000
 zl[34] >= -10000
 zl[35] >= -10000
 zl[36] >= -10000
 zl[37] >= -10000
 zl[38] >= -10000
 zl[39] >= -10000
 zl[40] >= -10000
 zl[41] >= -10000
 zl[42] >= -10000
 zl[43] >= -10000
 zl[44] >= -10000
 zl[45] >= -10000
 zl[46] >= -10000
 zl[47] >= -10000
 zl[48] >= -10000
 zl[49] >= -10000
 zl[50] >= -10000
 zl[51] >= -10000
 zl[52] >= -10000
 zl[53] >= -10000
 zl[54] >= -10000
 zl[55] >= -10000
 zl[56] >= -10000
 zl[57] >= -10000
 zl[58] >= -10000
 zl[59] >= -10000
 zl[60] >= -10000
 zl[61] >= -10000
 zl[62] >= -10000
 zl[63] >= -10000
 zl[64] >= -10000
 zl[65] >= -10000
 zl[66] >= -10000
 zl[67] >= -10000
 zl[68] >= -10000
 zl[69] >= -10000
 zl[70] >= -10000
 zl[71] >= -10000
 zl[72] >= -10000
 zl[73] >= -10000
 zl[74] >= -10000
 zl[75] >= -10000
 zl[76] >= -10000
 zl[77] >= -10000
 zl[78] >= -10000
 zl[79] >= -10000
 zl[80] >= -10000
 zl[81] >= -10000
 zl[82] >= -10000
 zl[83] >= -10000
 zl[84] >= -10000
 zl[85] >= -10000
 zl[86] >= -10000
 zl[87] >= -10000
 zl[88] >= -10000
 zl[89] >= -10000
 zl[90] >= -10000
 zl[91] >= -10000
 zl[92] >= -10000
 zl[93] >= -10000
 zl[94] >= -10000
 zl[95] >= -10000
 zl[96] >= -10000
 zl[97] >= -10000
 zl[98] >= -10000
 zl[99] >= -10000
 zl[100] >= -10000
 zl[101] >= -10000
 zl[102] >= -10000
 zl[103] >= -10000
 zl[104] >= -10000
 zl[105] >= -10000
 zl[106] >= -10000
 zl[107] >= -10000
 zl[108] >= -10000
 zl[109] >= -10000
 zl[110] >= -10000
 zl[111] >= -10000
 zl[112] >= -10000
 zl[113] >= -10000
 zl[114] >= -10000
 zl[115] >= -10000
 zl[116] >= -10000
 zl[117] >= -10000
 zl[118] >= -10000
 zl[119] >= -10000
 zl[120] >= -10000
 zl[121] >= -10000
 zl[122] >= -10000
 zl[123] >= -10000
 zl[124] >= -10000
 zl[125] >= -10000
 zl[126] >= -10000
 zl[127] >= -10000
 zl[128] >= -10000
 zl[129] >= -10000
 zl[130] >= -10000
 zl[131] >= -10000
 zl[132] >= -10000
 zl[133] >= -10000
 zl[134] >= -10000
 zl[135] >= -10000
 zl[136] >= -10000
 zl[137] >= -10000
 zl[138] >= -10000
 zl[139] >= -10000
 zl[140] >= -10000
 zl[141] >= -10000
 zl[142] >= -10000
 zl[143] >= -10000
 zl[144] >= -10000
 zl[145] >= -10000
 zl[146] >= -10000
 zl[147] >= -10000
 zl[148] >= -10000
 zl[149] >= -10000
 zl[150] >= -10000
 zl[151] >= -10000
 zl[152] >= -10000
 zl[153] >= -10000
 zl[154] >= -10000
 zl[155] >= -10000
 zl[156] >= -10000
 zl[157] >= -10000
 zl[158] >= -10000
 zl[159] >= -10000
 zl[160] >= -10000
 zl[161] >= -10000
 zl[162] >= -10000
 zl[163] >= -10000
End
